(declare-fun temp559_1 () (_ BitVec 64))
(declare-fun var201290 () (_ BitVec 64))
(declare-fun var201292 () (_ BitVec 64))
(declare-fun temp559_2 () (_ BitVec 64))
(declare-fun var332362 () (_ BitVec 64))
(declare-fun var332364 () (_ BitVec 64))
(declare-fun temp559_3 () (_ BitVec 64))
(declare-fun var733184 () (_ BitVec 64))
(declare-fun k!0 () Bool)
(declare-fun ARGNAME_input_NAMEEND_DIM () (_ BitVec 64))
(declare-fun ARGNAME_dims_NAMEEND_LEN () (_ BitVec 64))
(declare-fun temp559_4 () (_ BitVec 64))
(declare-fun var1116844 () (_ BitVec 64))
(declare-fun temp559_6 () (_ BitVec 64))
(declare-fun temp559_5 () (_ BitVec 64))
(declare-fun temp559_7 () (_ BitVec 64))
(declare-fun var1315402 () (_ BitVec 64))
(declare-fun var1315404 () (_ BitVec 64))
(declare-fun temp559_9 () (_ BitVec 64))
(declare-fun temp559_8 () (_ BitVec 64))
(declare-fun temp559_10 () (_ BitVec 64))
(declare-fun var2232906 () (_ BitVec 64))
(declare-fun var2232908 () (_ BitVec 64))
(declare-fun temp559_12 () (_ BitVec 64))
(declare-fun temp559_11 () (_ BitVec 64))
(declare-fun temp559_13 () (_ BitVec 64))
(declare-fun var4141614 () (_ BitVec 64))
(declare-fun var4338298 () (_ BitVec 64))
(declare-fun temp559_15 () (_ BitVec 64))
(declare-fun temp559_14 () (_ BitVec 64))
(declare-fun var4525378 () (_ BitVec 64))
(declare-fun temp559_16 () (_ BitVec 64))
(declare-fun temp559_17 () (_ BitVec 64))
(declare-fun var4590919 () (_ BitVec 64))
(declare-fun var4656466 () (_ BitVec 64))
(assert (= temp559_1 #x0000000000000005))
(assert (= var201290 temp559_1))
(assert (= var201292 var201290))
(assert (= temp559_2 #x0000000000000005))
(assert (= var332362 temp559_2))
(assert (= var332364 var332362))
(assert (= var733184
   (ite (= ARGNAME_input_NAMEEND_DIM ARGNAME_dims_NAMEEND_LEN)
        #x0000000000000001
        #x0000000000000000)))
(assert (= temp559_3 #x0000000000000001))
(assert (= var733184 temp559_3))
(assert (= temp559_4 #x0000000000000001))
(assert (= var1116844 temp559_4))
(assert (= temp559_6 #x0000000000000000))
(assert (= temp559_5 temp559_6))
(assert (= temp559_7 #x0000000000000005))
(assert (= var1315402 temp559_7))
(assert (= var1315404 var1315402))
(assert (= temp559_9 #x0000000000000000))
(assert (= temp559_8 temp559_9))
(assert (= temp559_10 #x0000000000000005))
(assert (= var2232906 temp559_10))
(assert (= var2232908 var2232906))
(assert (= temp559_12 #x0000000000000000))
(assert (= temp559_11 temp559_12))
(assert (= temp559_13 #x0000000000000000))
(assert (= var4141614
   (ite (distinct temp559_11 temp559_13) #x0000000000000001 #x0000000000000000)))
(assert (= var4338298 var4141614))
(assert (= temp559_15 #x0000000000000000))
(assert (= temp559_14 temp559_15))
(assert (= var4525378
   (ite (bvslt temp559_14 ARGNAME_input_NAMEEND_DIM)
        #x0000000000000001
        #x0000000000000000)))
(assert (= temp559_16
   (ite (= var4525378 #x0000000000000001) ARGNAME_input_NAMEEND_DIM temp559_14)))
(assert (= temp559_17 #x0000000000000000))
(assert (= var4590919 temp559_17))
(assert (= var4656466 var4590919))
(model-add temp559_1 () (_ BitVec 64) #x0000000000000005)
(model-add var201290 () (_ BitVec 64) #x0000000000000005)
(model-add var201292 () (_ BitVec 64) #x0000000000000005)
(model-add temp559_2 () (_ BitVec 64) #x0000000000000005)
(model-add var332362 () (_ BitVec 64) #x0000000000000005)
(model-add var332364 () (_ BitVec 64) #x0000000000000005)
(model-add temp559_3 () (_ BitVec 64) #x0000000000000001)
(model-add var733184 () (_ BitVec 64) #x0000000000000001)
(model-del k!0)
(model-add ARGNAME_input_NAMEEND_DIM
           ()
           (_ BitVec 64)
           (ite k!0 ARGNAME_dims_NAMEEND_LEN (bvnot ARGNAME_dims_NAMEEND_LEN)))






